c pcminimize - minimizing a CNF with respect to propagation completeness by iterative removing of absorbed clauses.
c Petr Kucera, 2016-2021
c Version 2.7, revision 59, git hash 4910a71, date 2024-07-16 20:17:42 +0200
p cnf 849 2592
251 -252 0
59 -252 0
-110 -253 0
-59 -253 0
252 253 -254 0
9 -255 0
-19 -255 0
35 -255 0
42 -255 0
43 -255 0
46 -255 0
-75 -255 0
99 -255 0
-108 -255 0
-115 -255 0
-126 -255 0
130 -255 0
131 -255 0
-150 -255 0
-154 -255 0
164 -255 0
166 -255 0
171 -255 0
179 -255 0
186 -255 0
187 -255 0
-206 -255 0
220 -255 0
-224 -255 0
-229 -255 0
246 -255 0
-249 -255 0
256 -268 0
257 -268 0
258 -268 0
259 -268 0
260 -268 0
261 -268 0
262 -268 0
263 -268 0
264 -268 0
265 -268 0
266 -268 0
267 -268 0
254 -269 0
255 -269 0
268 -269 0
269 -270 0
147 -270 0
257 -271 0
256 -271 0
35 -272 0
271 -272 0
272 -273 0
9 -273 0
256 -274 0
257 -274 0
274 -275 0
35 -275 0
-91 -276 0
-250 -276 0
276 -277 0
-35 -277 0
275 277 -278 0
278 -279 0
-9 -279 0
273 279 -280 0
280 -281 0
48 -281 0
35 -282 0
257 -282 0
282 -283 0
9 -283 0
257 -284 0
35 -284 0
-91 -285 0
-35 -285 0
284 285 -286 0
286 -287 0
-9 -287 0
283 287 -288 0
288 -289 0
256 -289 0
289 -290 0
-48 -290 0
281 290 -291 0
240 -292 0
126 -292 0
259 -293 0
-126 -293 0
292 293 -294 0
264 -295 0
263 -295 0
295 -296 0
220 -296 0
-1 -297 0
160 -297 0
297 -298 0
-220 -298 0
296 298 -299 0
291 -300 0
294 -300 0
299 -300 0
300 -301 0
249 -301 0
9 -302 0
35 -302 0
-126 -302 0
220 -302 0
257 -303 0
262 -303 0
256 -303 0
259 -303 0
264 -303 0
263 -303 0
302 -304 0
303 -304 0
304 -305 0
-249 -305 0
301 305 -306 0
246 -307 0
267 -307 0
307 -308 0
130 -308 0
309 -310 0
132 -310 0
246 -311 0
-132 -311 0
310 311 -312 0
312 -313 0
-130 -313 0
308 313 -314 0
-19 -315 0
-75 -315 0
99 -315 0
-108 -315 0
-115 -315 0
-150 -315 0
164 -315 0
166 -315 0
171 -315 0
179 -315 0
186 -315 0
187 -315 0
-224 -315 0
-229 -315 0
258 -317 0
260 -317 0
261 -317 0
316 -317 0
265 -317 0
306 -318 0
314 -318 0
254 -318 0
315 -318 0
317 -318 0
318 -319 0
42 -319 0
179 -320 0
-250 -320 0
320 -321 0
48 -321 0
256 -323 0
322 -323 0
323 -324 0
-48 -324 0
321 324 -325 0
246 -326 0
130 -326 0
309 -327 0
-130 -327 0
326 327 -328 0
325 -329 0
328 -329 0
329 -330 0
132 -330 0
-250 -331 0
48 -331 0
256 -332 0
-48 -332 0
331 332 -333 0
179 -334 0
246 -334 0
333 -336 0
334 -336 0
335 -336 0
336 -337 0
-132 -337 0
330 337 -338 0
-108 -339 0
299 -340 0
339 -340 0
340 -341 0
-75 -342 0
-224 -342 0
338 -343 0
341 -343 0
254 -343 0
342 -343 0
265 -343 0
343 -344 0
345 -346 0
258 -346 0
346 -347 0
84 -347 0
-166 -348 0
238 -348 0
348 -349 0
-84 -349 0
347 349 -350 0
-8 -351 0
-9 -351 0
19 -351 0
-35 -351 0
45 -351 0
-46 -351 0
-91 -351 0
-99 -351 0
115 -351 0
150 -351 0
-164 -351 0
-171 -351 0
-186 -351 0
-187 -351 0
229 -351 0
249 -351 0
344 -352 0
350 -352 0
294 -352 0
351 -352 0
352 -353 0
-42 -353 0
319 353 -354 0
43 -355 0
-131 -355 0
133 -355 0
-154 -355 0
-206 -355 0
354 -356 0
355 -356 0
356 -357 0
-147 -357 0
270 357 -358 0
-2 -359 0
-11 -359 0
22 -359 0
30 -359 0
-36 -359 0
37 -359 0
-51 -359 0
-52 -359 0
55 -359 0
57 -359 0
58 -359 0
70 -359 0
-71 -359 0
72 -359 0
77 -359 0
-87 -359 0
100 -359 0
101 -359 0
-105 -359 0
106 -359 0
-112 -359 0
119 -359 0
121 -359 0
125 -359 0
128 -359 0
-134 -359 0
-144 -359 0
148 -359 0
176 -359 0
-189 -359 0
-191 -359 0
192 -359 0
200 -359 0
213 -359 0
216 -359 0
-225 -359 0
231 -359 0
-234 -359 0
360 -365 0
361 -365 0
362 -365 0
363 -365 0
364 -365 0
358 -366 0
359 -366 0
365 -366 0
366 -367 0
-44 -368 0
88 -368 0
-113 -368 0
-139 -368 0
367 -369 0
368 -369 0
369 -370 0
-17 -370 0
168 -371 0
370 -372 0
371 -372 0
372 -373 0
161 -373 0
9 -374 0
-19 -374 0
35 -374 0
42 -374 0
46 -374 0
99 -374 0
-115 -374 0
-126 -374 0
130 -374 0
131 -374 0
-150 -374 0
164 -374 0
166 -374 0
171 -374 0
179 -374 0
186 -374 0
187 -374 0
220 -374 0
-229 -374 0
246 -374 0
-249 -374 0
256 -375 0
258 -375 0
257 -375 0
259 -375 0
261 -375 0
262 -375 0
264 -375 0
263 -375 0
266 -375 0
267 -375 0
374 -376 0
375 -376 0
376 -377 0
147 -377 0
-19 -378 0
42 -378 0
99 -378 0
-115 -378 0
-150 -378 0
166 -378 0
171 -378 0
179 -378 0
186 -378 0
187 -378 0
-229 -378 0
258 -379 0
261 -379 0
316 -379 0
306 -380 0
314 -380 0
378 -380 0
379 -380 0
380 -381 0
164 -381 0
-9 -382 0
19 -382 0
-35 -382 0
-42 -382 0
45 -382 0
-46 -382 0
-91 -382 0
-99 -382 0
115 -382 0
150 -382 0
-171 -382 0
-186 -382 0
-187 -382 0
229 -382 0
249 -382 0
299 -383 0
338 -383 0
350 -383 0
294 -383 0
382 -383 0
383 -384 0
-164 -384 0
381 384 -385 0
-131 -386 0
133 -386 0
385 -387 0
386 -387 0
387 -388 0
-147 -388 0
377 388 -389 0
363 -390 0
110 -390 0
-140 -391 0
-110 -391 0
390 391 -392 0
392 -393 0
59 -393 0
-110 -394 0
-140 -394 0
394 -395 0
-59 -395 0
393 395 -396 0
-2 -397 0
-11 -397 0
22 -397 0
30 -397 0
-36 -397 0
37 -397 0
43 -397 0
-44 -397 0
-51 -397 0
-52 -397 0
55 -397 0
57 -397 0
58 -397 0
70 -397 0
-71 -397 0
72 -397 0
-75 -397 0
77 -397 0
-87 -397 0
88 -397 0
100 -397 0
101 -397 0
-105 -397 0
106 -397 0
-108 -397 0
-112 -397 0
-113 -397 0
119 -397 0
121 -397 0
125 -397 0
128 -397 0
-134 -397 0
-139 -397 0
148 -397 0
-154 -397 0
176 -397 0
-189 -397 0
-191 -397 0
192 -397 0
200 -397 0
-206 -397 0
213 -397 0
216 -397 0
-224 -397 0
-225 -397 0
231 -397 0
-234 -397 0
360 -398 0
361 -398 0
362 -398 0
364 -398 0
265 -398 0
389 -399 0
396 -399 0
397 -399 0
398 -399 0
399 -400 0
-17 -400 0
-8 -401 0
-144 -401 0
168 -401 0
400 -402 0
401 -402 0
402 -403 0
-161 -403 0
373 403 -404 0
404 -405 0
54 -406 0
405 -407 0
406 -407 0
407 -408 0
408 -409 0
409 -410 0
23 -410 0
410 -411 0
78 -411 0
411 -413 0
412 -413 0
413 -414 0
414 -416 0
415 -416 0
416 -417 0
417 -418 0
418 -419 0
419 -420 0
182 -420 0
-31 -421 0
89 -421 0
420 -422 0
421 -422 0
422 -423 0
423 -424 0
424 -425 0
425 -426 0
426 -427 0
427 -429 0
428 -429 0
429 -430 0
430 -431 0
431 -432 0
432 -433 0
174 -433 0
37 -434 0
213 -434 0
435 -436 0
-213 -436 0
434 436 -437 0
9 -438 0
-19 -438 0
35 -438 0
42 -438 0
46 -438 0
99 -438 0
-115 -438 0
-126 -438 0
130 -438 0
131 -438 0
-150 -438 0
164 -438 0
166 -438 0
171 -438 0
179 -438 0
186 -438 0
187 -438 0
220 -438 0
-229 -438 0
246 -438 0
-249 -438 0
256 -439 0
258 -439 0
257 -439 0
362 -439 0
259 -439 0
261 -439 0
262 -439 0
264 -439 0
263 -439 0
266 -439 0
267 -439 0
437 -440 0
438 -440 0
439 -440 0
440 -441 0
147 -441 0
-19 -442 0
42 -442 0
99 -442 0
-115 -442 0
-150 -442 0
166 -442 0
171 -442 0
186 -442 0
187 -442 0
-229 -442 0
258 -443 0
362 -443 0
316 -443 0
261 -443 0
306 -444 0
442 -444 0
443 -444 0
444 -445 0
164 -445 0
-9 -446 0
19 -446 0
-35 -446 0
-42 -446 0
45 -446 0
-46 -446 0
-91 -446 0
-99 -446 0
115 -446 0
150 -446 0
-171 -446 0
-186 -446 0
-187 -446 0
229 -446 0
249 -446 0
299 -447 0
333 -447 0
350 -447 0
294 -447 0
446 -447 0
362 -447 0
447 -448 0
-164 -448 0
445 448 -449 0
37 -450 0
450 -451 0
335 -451 0
451 -452 0
213 -452 0
130 -453 0
454 -455 0
-130 -455 0
453 455 -456 0
456 -457 0
435 -457 0
457 -458 0
-213 -458 0
452 458 -459 0
-131 -460 0
-132 -460 0
133 -460 0
179 -460 0
246 -460 0
449 -461 0
459 -461 0
460 -461 0
461 -462 0
-147 -462 0
441 462 -463 0
-8 -464 0
22 -464 0
30 -464 0
-31 -464 0
-36 -464 0
43 -464 0
-44 -464 0
-51 -464 0
-52 -464 0
55 -464 0
58 -464 0
70 -464 0
72 -464 0
-75 -464 0
77 -464 0
-87 -464 0
88 -464 0
89 -464 0
100 -464 0
101 -464 0
-105 -464 0
106 -464 0
-108 -464 0
-112 -464 0
-113 -464 0
119 -464 0
121 -464 0
125 -464 0
128 -464 0
-139 -464 0
148 -464 0
-154 -464 0
-191 -464 0
192 -464 0
200 -464 0
-206 -464 0
-224 -464 0
-225 -464 0
231 -464 0
-234 -464 0
360 -465 0
361 -465 0
364 -465 0
265 -465 0
463 -466 0
396 -466 0
464 -466 0
465 -466 0
466 -467 0
-17 -467 0
467 -468 0
468 -469 0
-71 -470 0
-144 -470 0
469 -471 0
470 -471 0
471 -472 0
23 -473 0
472 -474 0
473 -474 0
474 -475 0
78 -475 0
-11 -476 0
54 -476 0
57 -476 0
-134 -476 0
168 -476 0
176 -476 0
-189 -476 0
216 -476 0
475 -477 0
476 -477 0
477 -478 0
478 -479 0
479 -480 0
182 -480 0
480 -482 0
481 -482 0
482 -483 0
-2 -484 0
483 -485 0
484 -485 0
485 -486 0
486 -487 0
487 -488 0
488 -489 0
489 -491 0
490 -491 0
491 -492 0
492 -493 0
493 -494 0
494 -495 0
-174 -495 0
496 -497 0
63 -498 0
30 -499 0
179 -499 0
499 -500 0
46 -500 0
501 -502 0
322 -502 0
502 -503 0
-46 -503 0
500 503 -504 0
88 -505 0
-105 -505 0
505 -507 0
506 -507 0
507 -508 0
58 -508 0
-89 -511 0
509 -511 0
510 -511 0
511 -512 0
-58 -512 0
508 512 -513 0
513 -514 0
100 -514 0
-58 -515 0
-88 -515 0
-89 -515 0
515 -516 0
509 -516 0
516 -517 0
-100 -517 0
514 517 -518 0
504 -519 0
518 -519 0
206 -519 0
519 -520 0
31 -520 0
504 -521 0
206 -521 0
-30 -522 0
-46 -522 0
522 -523 0
322 -523 0
523 -524 0
-206 -524 0
521 524 -525 0
58 -526 0
88 -526 0
89 -526 0
100 -526 0
-105 -526 0
525 -527 0
526 -527 0
527 -528 0
-31 -528 0
520 528 -529 0
-28 -530 0
50 -530 0
530 -531 0
139 -531 0
360 -532 0
50 -532 0
28 -533 0
-50 -533 0
532 533 -534 0
534 -535 0
-139 -535 0
531 535 -536 0
536 -537 0
71 -537 0
534 -539 0
538 -539 0
539 -540 0
-71 -540 0
537 540 -541 0
-57 -542 0
134 -542 0
541 -543 0
542 -543 0
543 -544 0
44 -544 0
57 -545 0
-134 -545 0
-139 -545 0
534 -547 0
545 -547 0
546 -547 0
547 -548 0
-44 -548 0
544 548 -549 0
-43 -550 0
-52 -550 0
529 -551 0
549 -551 0
550 -551 0
551 -552 0
154 -552 0
-52 -553 0
206 -553 0
504 -555 0
518 -555 0
553 -555 0
554 -555 0
555 -556 0
31 -556 0
43 -557 0
-206 -557 0
557 -558 0
52 -558 0
554 -559 0
206 -559 0
43 -560 0
-206 -560 0
559 560 -561 0
561 -562 0
-52 -562 0
558 562 -563 0
179 -564 0
46 -564 0
322 -565 0
-46 -565 0
564 565 -566 0
563 -567 0
566 -567 0
567 -568 0
30 -568 0
-206 -569 0
52 -569 0
570 -571 0
-52 -571 0
569 571 -572 0
572 -573 0
-46 -573 0
322 -573 0
573 -574 0
554 -574 0
574 -575 0
-30 -575 0
568 575 -576 0
576 -577 0
526 -577 0
577 -578 0
-31 -578 0
556 578 -579 0
530 -580 0
71 -580 0
534 -581 0
-71 -581 0
580 581 -582 0
44 -583 0
-57 -583 0
134 -583 0
139 -583 0
579 -584 0
582 -584 0
583 -584 0
584 -585 0
-154 -585 0
552 585 -586 0
264 -587 0
587 -588 0
176 -588 0
-1 -590 0
589 -590 0
590 -591 0
-176 -591 0
588 591 -592 0
-9 -593 0
19 -593 0
-23 -593 0
36 -593 0
45 -593 0
48 -593 0
51 -593 0
-70 -593 0
-72 -593 0
-77 -593 0
-101 -593 0
108 -593 0
-121 -593 0
-126 -593 0
130 -593 0
131 -593 0
132 -593 0
144 -593 0
-145 -593 0
-148 -593 0
150 -593 0
160 -593 0
-164 -593 0
-168 -593 0
169 -593 0
-171 -593 0
-187 -593 0
-192 -593 0
-200 -593 0
220 -593 0
224 -593 0
225 -593 0
-231 -593 0
-249 -593 0
594 -595 0
259 -595 0
586 -596 0
592 -596 0
593 -596 0
595 -596 0
596 -597 0
11 -597 0
-28 -598 0
139 -598 0
360 -599 0
-139 -599 0
598 599 -600 0
600 -601 0
71 -601 0
360 -602 0
538 -602 0
602 -603 0
-71 -603 0
601 603 -604 0
44 -605 0
-57 -605 0
604 -606 0
605 -606 0
364 -606 0
606 -607 0
134 -607 0
-44 -608 0
57 -608 0
-139 -608 0
360 -609 0
546 -609 0
364 -609 0
608 -610 0
609 -610 0
610 -611 0
-134 -611 0
607 611 -612 0
506 -613 0
31 -613 0
89 -614 0
-31 -614 0
613 614 -615 0
88 -616 0
100 -616 0
-105 -616 0
615 -617 0
616 -617 0
617 -618 0
58 -618 0
100 -619 0
88 -619 0
620 -621 0
-88 -621 0
619 621 -622 0
31 -623 0
-89 -623 0
622 -624 0
623 -624 0
624 -625 0
509 -625 0
625 -626 0
-58 -626 0
618 626 -627 0
-43 -628 0
-52 -628 0
206 -628 0
612 -629 0
627 -629 0
628 -629 0
629 -630 0
154 -630 0
-31 -631 0
43 -631 0
-206 -631 0
631 -632 0
52 -632 0
206 -633 0
554 -633 0
633 -634 0
31 -634 0
561 -635 0
-31 -635 0
634 635 -636 0
636 -637 0
-52 -637 0
632 637 -638 0
58 -639 0
88 -639 0
100 -639 0
-105 -639 0
638 -640 0
639 -640 0
640 -641 0
89 -641 0
616 -642 0
58 -642 0
622 -643 0
509 -643 0
643 -644 0
-58 -644 0
642 644 -645 0
31 -646 0
-52 -646 0
206 -646 0
645 -647 0
646 -647 0
554 -647 0
647 -648 0
-89 -648 0
641 648 -649 0
-28 -650 0
71 -650 0
360 -651 0
-71 -651 0
650 651 -652 0
649 -653 0
652 -653 0
583 -653 0
364 -653 0
653 -654 0
-154 -654 0
630 654 -655 0
655 -656 0
499 -656 0
656 -657 0
46 -657 0
518 -658 0
206 -658 0
501 -658 0
658 -659 0
31 -659 0
501 -660 0
206 -660 0
-30 -661 0
-206 -661 0
660 661 -662 0
662 -663 0
526 -663 0
663 -664 0
-31 -664 0
659 664 -665 0
612 -666 0
665 -666 0
550 -666 0
666 -667 0
154 -667 0
501 -668 0
554 -668 0
518 -669 0
553 -669 0
668 -669 0
669 -670 0
31 -670 0
501 -671 0
43 -671 0
-30 -672 0
-43 -672 0
671 672 -673 0
673 -674 0
-206 -674 0
674 -675 0
52 -675 0
501 -676 0
554 -676 0
676 -677 0
206 -677 0
673 -678 0
-206 -678 0
677 678 -679 0
679 -680 0
-52 -680 0
675 680 -681 0
681 -682 0
526 -682 0
682 -683 0
-31 -683 0
670 683 -684 0
684 -685 0
652 -685 0
583 -685 0
364 -685 0
685 -686 0
-154 -686 0
667 686 -687 0
687 -688 0
322 -688 0
688 -689 0
-46 -689 0
657 689 -690 0
-9 -691 0
19 -691 0
-23 -691 0
36 -691 0
45 -691 0
48 -691 0
51 -691 0
-70 -691 0
-72 -691 0
-77 -691 0
-101 -691 0
108 -691 0
-121 -691 0
-126 -691 0
130 -691 0
131 -691 0
132 -691 0
144 -691 0
-145 -691 0
150 -691 0
160 -691 0
-164 -691 0
-168 -691 0
169 -691 0
-171 -691 0
-187 -691 0
-192 -691 0
-200 -691 0
220 -691 0
224 -691 0
225 -691 0
-231 -691 0
-249 -691 0
594 -693 0
692 -693 0
259 -693 0
690 -694 0
592 -694 0
691 -694 0
693 -694 0
694 -695 0
695 -696 0
696 -697 0
-11 -697 0
597 697 -698 0
2 -699 0
-8 -699 0
17 -699 0
-22 -699 0
35 -699 0
-37 -699 0
-42 -699 0
54 -699 0
-55 -699 0
59 -699 0
75 -699 0
-78 -699 0
87 -699 0
91 -699 0
99 -699 0
-106 -699 0
-110 -699 0
112 -699 0
113 -699 0
-115 -699 0
-119 -699 0
-125 -699 0
-128 -699 0
133 -699 0
-140 -699 0
147 -699 0
166 -699 0
-186 -699 0
189 -699 0
191 -699 0
-213 -699 0
-216 -699 0
246 -699 0
250 -699 0
258 -700 0
361 -700 0
698 -701 0
699 -701 0
700 -701 0
701 -702 0
702 -704 0
703 -704 0
704 -705 0
182 -705 0
504 -706 0
206 -706 0
706 -707 0
31 -707 0
525 -708 0
-31 -708 0
707 708 -709 0
534 -710 0
-148 -710 0
710 -711 0
11 -711 0
692 -712 0
360 -712 0
364 -712 0
712 -713 0
-11 -713 0
711 713 -714 0
-43 -715 0
-44 -715 0
-52 -715 0
57 -715 0
58 -715 0
88 -715 0
100 -715 0
-105 -715 0
-134 -715 0
-139 -715 0
154 -715 0
709 -716 0
714 -716 0
715 -716 0
546 -716 0
716 -717 0
89 -717 0
582 -718 0
-148 -718 0
718 -719 0
11 -719 0
652 -720 0
692 -720 0
364 -720 0
720 -721 0
-11 -721 0
719 721 -722 0
-154 -723 0
43 -723 0
724 -725 0
-43 -725 0
723 725 -726 0
44 -727 0
-57 -727 0
134 -727 0
722 -728 0
726 -728 0
727 -728 0
728 -729 0
139 -729 0
-57 -730 0
134 -730 0
730 -731 0
44 -731 0
57 -732 0
-134 -732 0
732 -733 0
-44 -733 0
731 733 -734 0
714 -736 0
734 -736 0
735 -736 0
736 -737 0
-43 -738 0
154 -738 0
737 -739 0
738 -739 0
739 -740 0
546 -740 0
740 -741 0
-139 -741 0
729 741 -742 0
504 -743 0
742 -743 0
645 -743 0
646 -743 0
743 -744 0
-89 -744 0
717 744 -745 0
2 -746 0
-9 -746 0
19 -746 0
-23 -746 0
36 -746 0
45 -746 0
-70 -746 0
-72 -746 0
-101 -746 0
108 -746 0
-115 -746 0
-121 -746 0
-126 -746 0
130 -746 0
132 -746 0
144 -746 0
-145 -746 0
147 -746 0
150 -746 0
-164 -746 0
-168 -746 0
169 -746 0
-171 -746 0
-187 -746 0
189 -746 0
-192 -746 0
-216 -746 0
224 -746 0
225 -746 0
-231 -746 0
246 -746 0
-249 -746 0
259 -748 0
747 -748 0
745 -749 0
746 -749 0
748 -749 0
749 -750 0
594 -750 0
750 -751 0
-22 -752 0
-119 -752 0
250 -752 0
751 -753 0
752 -753 0
258 -753 0
753 -754 0
48 -755 0
51 -755 0
-77 -755 0
160 -755 0
191 -755 0
-200 -755 0
754 -756 0
755 -756 0
756 -757 0
1 -758 0
-8 -758 0
17 -758 0
35 -758 0
-37 -758 0
-42 -758 0
-55 -758 0
59 -758 0
75 -758 0
-78 -758 0
87 -758 0
91 -758 0
99 -758 0
-106 -758 0
-110 -758 0
112 -758 0
113 -758 0
-125 -758 0
-128 -758 0
133 -758 0
-140 -758 0
166 -758 0
-186 -758 0
-213 -758 0
757 -759 0
758 -759 0
361 -759 0
759 -760 0
131 -761 0
760 -762 0
761 -762 0
762 -763 0
-182 -763 0
705 763 -764 0
764 -765 0
185 -765 0
-43 -766 0
-139 -766 0
154 -766 0
766 -767 0
71 -767 0
139 -768 0
-154 -768 0
768 -769 0
43 -769 0
538 -770 0
154 -770 0
139 -771 0
-154 -771 0
770 771 -772 0
772 -773 0
-43 -773 0
769 773 -774 0
774 -775 0
-71 -775 0
767 775 -776 0
-148 -777 0
11 -777 0
692 -778 0
-11 -778 0
777 778 -779 0
776 -780 0
779 -780 0
780 -781 0
364 -781 0
781 -782 0
28 -782 0
50 -783 0
-148 -783 0
783 -784 0
11 -784 0
692 -785 0
364 -785 0
785 -786 0
-11 -786 0
784 786 -787 0
774 -788 0
787 -788 0
788 -789 0
546 -789 0
789 -790 0
-28 -790 0
782 790 -791 0
504 -792 0
627 -792 0
791 -792 0
-52 -792 0
792 -793 0
206 -793 0
541 -794 0
-148 -794 0
794 -795 0
11 -795 0
604 -796 0
692 -796 0
364 -796 0
796 -797 0
-11 -797 0
795 797 -798 0
-30 -799 0
-43 -799 0
-46 -799 0
-52 -799 0
798 -800 0
799 -800 0
322 -800 0
800 -801 0
154 -801 0
504 -802 0
43 -802 0
522 -803 0
322 -803 0
803 -804 0
-43 -804 0
802 804 -805 0
805 -806 0
722 -806 0
139 -806 0
806 -808 0
807 -808 0
808 -809 0
-154 -809 0
801 809 -810 0
-31 -811 0
58 -811 0
88 -811 0
89 -811 0
100 -811 0
-105 -811 0
810 -812 0
811 -812 0
812 -813 0
-206 -813 0
793 813 -814 0
2 -815 0
-8 -815 0
-9 -815 0
17 -815 0
19 -815 0
-22 -815 0
-23 -815 0
35 -815 0
36 -815 0
-37 -815 0
-42 -815 0
44 -815 0
45 -815 0
48 -815 0
51 -815 0
54 -815 0
-55 -815 0
-57 -815 0
59 -815 0
-70 -815 0
-72 -815 0
75 -815 0
-77 -815 0
-78 -815 0
87 -815 0
91 -815 0
99 -815 0
-101 -815 0
-106 -815 0
108 -815 0
-110 -815 0
112 -815 0
113 -815 0
-115 -815 0
-119 -815 0
-121 -815 0
-125 -815 0
-126 -815 0
-128 -815 0
130 -815 0
131 -815 0
132 -815 0
133 -815 0
134 -815 0
-140 -815 0
144 -815 0
-145 -815 0
147 -815 0
150 -815 0
160 -815 0
-164 -815 0
166 -815 0
-168 -815 0
169 -815 0
-171 -815 0
-186 -815 0
-187 -815 0
189 -815 0
191 -815 0
-192 -815 0
-200 -815 0
-213 -815 0
-216 -815 0
220 -815 0
224 -815 0
225 -815 0
-231 -815 0
246 -815 0
-249 -815 0
250 -815 0
258 -816 0
594 -816 0
259 -816 0
361 -816 0
592 -817 0
814 -817 0
815 -817 0
816 -817 0
817 -818 0
818 -819 0
703 -819 0
819 -820 0
182 -820 0
1 -821 0
2 -821 0
-8 -821 0
-9 -821 0
17 -821 0
19 -821 0
-22 -821 0
-23 -821 0
31 -821 0
35 -821 0
36 -821 0
-37 -821 0
-42 -821 0
44 -821 0
45 -821 0
48 -821 0
51 -821 0
-52 -821 0
-55 -821 0
-57 -821 0
59 -821 0
-70 -821 0
-72 -821 0
75 -821 0
-77 -821 0
-78 -821 0
87 -821 0
-89 -821 0
91 -821 0
99 -821 0
-101 -821 0
-106 -821 0
108 -821 0
-110 -821 0
112 -821 0
113 -821 0
-115 -821 0
-119 -821 0
-121 -821 0
-125 -821 0
-126 -821 0
-128 -821 0
130 -821 0
132 -821 0
133 -821 0
134 -821 0
-140 -821 0
144 -821 0
-145 -821 0
147 -821 0
150 -821 0
160 -821 0
-164 -821 0
166 -821 0
-168 -821 0
169 -821 0
-171 -821 0
-186 -821 0
-187 -821 0
189 -821 0
191 -821 0
-192 -821 0
-200 -821 0
206 -821 0
-213 -821 0
-216 -821 0
224 -821 0
225 -821 0
-231 -821 0
246 -821 0
-249 -821 0
250 -821 0
258 -822 0
594 -822 0
259 -822 0
747 -822 0
361 -822 0
504 -823 0
791 -823 0
645 -823 0
821 -823 0
822 -823 0
823 -824 0
824 -825 0
761 -825 0
825 -826 0
-182 -826 0
820 826 -827 0
827 -828 0
-185 -828 0
765 828 -829 0
-211 -830 0
829 -831 0
830 -831 0
831 -832 0
229 -833 0
832 -834 0
833 -834 0
834 -835 0
835 -836 0
836 -837 0
-127 -837 0
837 -838 0
-63 -846 0
847 -848 0
-3 0
4 0
5 0
-6 0
7 0
-10 0
-12 0
13 0
-14 0
15 0
-16 0
18 0
20 0
-21 0
24 0
25 0
-26 0
27 0
29 0
-32 0
-33 0
-34 0
-38 0
39 0
-40 0
-41 0
47 0
-49 0
53 0
56 0
60 0
-61 0
-62 0
-64 0
-65 0
66 0
67 0
-68 0
-69 0
-73 0
-74 0
76 0
79 0
80 0
81 0
82 0
83 0
85 0
-86 0
-90 0
92 0
93 0
-94 0
95 0
96 0
97 0
98 0
-102 0
103 0
-104 0
107 0
109 0
-111 0
-114 0
-116 0
117 0
118 0
-120 0
-122 0
123 0
124 0
129 0
135 0
-136 0
137 0
141 0
142 0
-143 0
146 0
149 0
-151 0
-152 0
-153 0
155 0
156 0
-157 0
158 0
159 0
-162 0
163 0
-165 0
-167 0
-170 0
172 0
-173 0
175 0
-177 0
178 0
-180 0
-181 0
-183 0
-184 0
-188 0
-190 0
-193 0
194 0
-196 0
-197 0
198 0
-199 0
201 0
-202 0
-203 0
-204 0
-205 0
207 0
-208 0
209 0
-210 0
-212 0
-214 0
215 0
-217 0
218 0
-219 0
221 0
-222 0
223 0
226 0
-227 0
-228 0
230 0
-232 0
233 0
235 0
-236 0
237 0
-239 0
-241 0
-243 0
244 0
245 0
247 0
248 0
-845 846 0
-844 845 0
-841 842 0
-839 840 0
-835 836 0
-833 834 0
-832 834 0
-830 831 0
211 830 0
-828 829 0
185 828 0
-826 827 0
-822 823 0
-820 827 0
-819 820 0
-818 819 0
-812 813 0
-811 812 0
-810 812 0
-808 809 0
-807 808 0
-805 806 0
-804 805 0
-791 792 823 0
-790 791 0
-789 790 0
-788 789 0
-787 788 0
-784 787 0
-782 791 0
-781 782 0
-776 780 0
-772 773 0
-771 772 0
-769 774 0
-768 769 0
-766 767 0
-765 829 0
-761 762 825 0
-760 762 0
-759 760 0
-758 759 0
-757 759 0
-755 756 0
-752 753 0
-751 753 0
-749 750 0
-840 841 0
54 747 0
-745 749 0
-744 745 0
-743 744 0
-740 741 0
-736 737 0
-735 736 0
-734 736 0
-733 734 0
-732 733 0
-728 729 0
-727 728 0
-725 726 0
-831 832 0
-723 726 0
-721 722 0
-718 719 0
-715 716 0
-714 716 736 0
-713 714 0
-712 713 0
-707 709 0
-704 705 0
-703 704 819 0
216 699 746 815 821 0
-191 699 755 815 821 0
128 699 758 815 821 0
106 699 758 815 821 0
-722 728 806 0
-87 699 758 815 821 0
-702 704 0
55 699 758 815 821 0
22 699 752 815 821 0
-17 699 758 815 821 0
-2 699 746 815 821 0
-697 698 0
-694 695 0
-688 689 0
-686 687 0
-684 685 0
-683 684 0
-682 683 0
-680 681 0
-676 677 0
-675 681 0
-673 674 678 0
-672 673 0
-729 742 0
-669 670 0
-666 667 0
-663 664 0
-662 663 0
-660 662 0
-659 665 0
-658 659 0
-657 690 0
-656 657 0
-738 739 0
-655 656 0
-724 725 0
-651 652 0
-650 652 0
-648 649 0
-646 647 743 0
-645 647 743 823 0
-644 645 0
-643 644 0
-642 645 0
-640 641 0
-639 640 0
-638 640 0
-637 638 0
-635 636 0
-634 636 0
-711 714 0
-633 634 0
-632 638 0
-631 632 0
-630 655 0
-628 629 0
-806 808 0
-627 629 792 0
-626 627 0
-625 626 0
-624 625 0
-622 624 643 0
-803 804 0
-621 622 0
-620 621 0
-794 795 0
-617 618 0
-614 615 0
-746 749 0
-613 615 0
-611 612 0
-610 611 0
-609 610 0
-785 786 0
-608 610 0
-607 612 0
-606 607 0
-605 606 0
-779 780 0
-603 604 0
-602 603 0
-601 604 0
-598 600 0
-11 597 711 719 777 784 795 0
-762 763 0
-695 696 0
-596 597 0
231 593 691 746 815 821 0
-224 593 691 746 815 821 0
192 593 691 746 815 821 0
168 593 691 746 815 821 0
-829 831 0
148 593 692 710 718 777 783 794 0
-667 687 0
-108 593 691 746 815 821 0
101 593 691 746 815 821 0
-793 814 0
77 593 691 755 815 821 0
-51 593 691 755 815 821 0
-36 593 691 746 815 821 0
23 593 691 746 815 821 0
-592 596 694 817 0
-590 591 0
-242 589 0
-588 592 0
-587 588 0
-586 596 0
78 699 758 815 821 0
-583 584 653 685 0
-581 582 0
-580 582 0
-578 579 0
-576 577 0
-574 575 0
-677 679 0
-573 574 0
-572 573 0
-570 571 0
-569 572 0
-568 576 0
-567 568 0
-566 567 0
-565 566 0
-564 566 0
-563 567 0
-562 563 0
-561 562 635 0
-560 561 0
-559 561 0
-558 563 0
-557 558 0
-556 579 0
-555 556 0
-814 817 0
-554 555 559 574 633 647 668 676 0
-552 586 0
-154 552 630 667 715 724 738 766 770 801 0
43 550 554 628 672 715 725 738 766 773 799 804 0
-548 549 0
-547 548 0
-75 699 758 815 821 0
-546 547 609 716 740 789 0
-544 549 0
-44 544 583 605 727 731 815 821 0
-543 544 0
-134 542 583 607 727 730 815 821 0
-541 543 794 0
-708 709 0
-539 540 0
-538 539 602 770 0
-537 541 0
-71 537 546 580 601 650 767 0
-800 801 0
-706 707 0
-536 537 0
70 593 691 746 815 821 0
-535 536 0
-534 535 539 547 581 710 0
-796 797 0
-533 534 0
-532 534 0
-531 536 0
-139 531 538 583 598 729 768 771 806 0
-530 531 580 0
-527 528 0
-526 527 577 663 682 0
-525 527 708 0
-524 525 0
-523 524 0
-604 606 796 0
-522 523 803 0
-521 525 0
-520 529 0
-519 520 0
-206 519 521 553 559 570 628 633 646 658 660 677 706 793 821 0
-518 519 555 658 669 0
-674 675 0
100 517 620 0
-516 517 0
-748 749 0
-515 516 0
-599 600 0
-514 518 0
58 512 515 626 644 0
-848 849 0
-511 512 0
-815 817 0
-510 511 0
88 510 515 621 0
-105 509 0
-774 775 788 0
-508 513 0
-507 508 0
-506 507 613 0
89 506 511 515 623 648 744 821 0
-504 519 521 555 706 743 792 802 823 0
57 542 583 605 727 730 815 821 0
-500 504 0
-497 498 0
-503 504 0
-119 359 397 464 0
112 359 397 464 0
-419 420 0
-582 584 718 0
-469 471 0
-106 359 397 464 0
-575 576 0
-101 359 397 464 0
-838 839 0
-366 367 0
-665 666 0
-517 518 0
-737 739 0
187 351 382 446 593 691 746 815 821 0
-270 358 0
-449 461 0
87 359 397 464 0
-8 260 0
-691 694 0
174 495 0
-330 338 0
-77 359 397 464 0
169 265 0
-797 798 0
-418 419 0
-619 622 0
-70 359 397 464 0
-342 343 0
-57 359 397 476 545 608 715 732 0
36 359 397 464 0
-679 680 0
-402 403 0
-753 754 0
-594 595 693 750 816 822 0
45 261 0
-493 494 0
225 359 397 464 0
-798 800 0
-258 268 317 346 375 379 439 443 700 753 816 822 0
-668 669 0
2 359 397 484 0
-501 502 658 660 668 671 676 0
-392 393 0
-553 555 669 0
-358 366 0
121 593 691 746 815 821 0
-451 452 0
-356 357 0
-332 333 0
-355 356 0
147 357 388 462 0
-354 356 0
-353 354 0
42 353 382 446 699 758 815 821 0
-698 701 0
176 591 0
-389 399 0
-716 717 0
-747 748 822 0
186 351 382 446 699 758 815 821 0
-742 743 0
99 351 382 446 0
-192 359 397 464 0
-457 458 0
-350 352 383 447 0
150 255 315 374 378 438 442 0
-302 304 0
84 349 0
-55 359 397 464 0
-255 269 0
-816 817 0
166 345 348 0
-344 352 0
-773 774 0
-545 547 0
-340 341 0
-339 340 0
-439 440 0
-690 694 0
-475 477 0
-31 520 556 613 623 634 646 659 670 707 821 0
-338 343 383 0
-336 337 0
-478 479 0
-335 336 451 0
164 351 384 448 593 691 746 815 821 0
-72 359 397 464 0
-528 529 0
-323 324 0
-709 716 0
-333 336 447 0
-730 731 0
-331 333 0
-171 255 315 374 378 438 442 0
-649 653 0
-352 353 0
50 364 533 0
-324 325 0
-685 686 0
-46 255 316 374 438 500 564 657 0
-482 483 0
-577 578 0
-164 255 315 374 381 438 445 0
-467 468 0
-589 590 0
-824 825 0
-319 354 0
-132 267 310 330 593 691 746 815 821 0
189 359 397 476 0
-318 319 0
46 316 351 382 446 503 522 565 573 689 799 0
-315 318 0
-413 414 0
-337 338 0
-670 684 0
-433 496 0
130 313 327 335 455 0
-22 359 397 464 0
-357 358 0
-395 396 0
-265 268 317 343 398 465 0
-809 810 0
-754 756 0
-45 261 351 382 446 593 691 746 815 821 0
133 266 0
-259 268 293 303 375 439 595 693 748 816 822 0
-689 690 0
240 259 0
238 258 0
-130 255 308 326 335 374 438 453 593 691 746 815 821 0
-499 500 656 0
-391 392 0
-654 655 0
-150 351 382 446 593 691 746 815 821 0
-317 318 0
-264 268 295 303 375 439 587 0
-465 466 0
-334 336 0
19 255 315 374 378 438 442 0
-450 451 0
35 277 285 351 382 446 0
-423 424 0
-448 449 0
249 255 305 374 438 593 691 746 815 821 0
-186 255 315 374 378 438 442 0
11 359 397 476 697 713 721 778 786 797 0
-283 288 0
-220 255 296 302 374 438 593 691 758 815 821 0
-37 359 397 434 435 450 0
-301 306 0
-343 344 0
-9 255 273 283 302 374 438 0
-376 377 0
-496 497 0
-100 359 397 464 514 526 616 619 620 639 715 811 0
-246 255 307 309 311 326 334 374 438 460 699 746 815 821 0
-298 299 0
-216 359 397 476 0
-641 649 0
-144 593 691 746 815 821 0
-346 347 0
-251 252 0
-502 503 0
-445 449 0
-58 359 397 464 508 526 618 639 642 715 811 0
-238 258 348 0
-254 269 318 343 0
-179 255 315 320 322 334 374 378 438 460 499 564 0
246 309 0
-84 255 315 347 374 378 438 442 699 758 815 821 0
-257 268 271 274 282 284 303 375 439 0
108 255 315 339 397 464 0
-260 268 317 0
-328 329 0
-35 255 272 275 282 284 302 374 438 699 758 815 821 0
-240 259 292 0
-285 286 0
91 257 276 285 351 382 446 0
-348 349 0
-59 252 393 699 758 815 821 0
-756 757 0
-282 283 0
-169 265 593 691 746 815 821 0
250 256 276 320 331 0
-300 301 0
-801 810 0
-267 268 307 375 439 0
-131 255 374 438 593 691 761 815 0
-252 254 0
-296 299 0
-813 814 0
-341 343 0
-347 350 0
59 253 395 0
-277 278 0
126 255 293 302 374 438 593 691 746 815 821 0
-43 255 355 397 464 554 557 560 631 671 723 769 802 0
-705 764 0
-692 693 712 720 778 785 796 0
52 359 397 464 550 553 562 571 628 637 646 680 715 792 799 807 821 0
115 255 315 374 378 438 442 699 746 815 821 0
-437 440 0
-133 266 355 386 460 699 758 815 821 0
-121 359 397 464 0
-292 294 0
213 436 458 699 758 815 821 0
224 255 315 342 397 464 0
-304 305 0
-269 270 0
154 255 355 397 464 585 654 686 723 724 768 771 809 0
-261 268 317 375 379 439 443 0
-687 688 0
-48 262 281 321 331 593 691 755 815 821 0
8 260 351 401 464 699 758 815 821 0
-229 351 382 446 833 0
-262 268 303 375 439 0
-327 328 0
-284 286 0
48 262 290 324 332 0
-571 572 0
-160 263 297 593 691 755 815 821 0
160 263 0
-398 399 0
1 264 297 590 0
-281 291 0
30 501 522 575 661 672 799 0
-266 268 375 439 0
-54 406 476 699 747 815 0
75 255 315 342 397 464 0
-585 586 0
-168 371 401 476 0
132 267 311 337 460 0
-485 486 0
-268 269 0
-438 440 0
-495 496 0
-295 296 0
-272 273 0
-542 543 0
-416 417 0
-263 268 295 303 375 439 0
-473 474 0
-681 682 0
-275 278 0
-783 784 0
-189 699 746 815 821 0
-314 318 380 0
-288 289 0
-750 751 0
-276 277 0
-417 418 0
-551 552 0
171 351 382 446 593 691 746 815 821 0
-780 781 0
-313 314 0
-792 793 0
-112 699 758 815 821 0
-287 288 0
-529 551 0
195 361 0
-345 346 0
-182 420 480 705 820 0
-597 698 0
-447 448 0
-325 329 0
206 255 355 397 464 524 557 560 569 570 631 661 674 678 813 0
-299 300 340 383 447 0
-125 359 397 464 0
-652 653 685 720 0
-316 317 379 443 0
105 359 397 464 505 509 526 616 639 715 811 0
-795 798 0
-623 624 0
-699 701 0
-278 279 0
-306 318 380 444 0
-731 734 0
-279 280 0
-110 251 390 0
-618 627 0
-286 287 0
-289 290 0
-351 352 0
-19 351 382 446 593 691 746 815 821 0
-291 300 0
229 255 315 374 378 438 442 0
-187 255 315 374 378 438 442 0
-293 294 0
-823 824 0
-99 255 315 374 378 438 442 699 758 815 821 0
-369 370 0
-505 507 0
-320 321 0
-322 323 502 523 565 573 688 800 803 0
-249 301 351 382 446 0
-834 835 0
220 298 0
-128 359 397 464 0
9 279 287 351 382 446 593 691 746 815 821 0
-775 776 0
-368 369 0
-309 310 327 0
-777 779 0
-311 312 0
-363 365 390 0
-799 800 0
-615 617 0
-23 410 473 0
-290 291 0
-297 298 0
-349 350 0
-250 256 699 752 815 821 0
-303 304 0
-273 280 0
-629 630 0
-294 300 352 383 447 0
31 421 464 528 578 614 631 635 664 683 708 811 0
-30 359 397 464 499 501 568 0
-280 281 0
-767 776 0
-307 308 0
-513 514 0
-310 312 0
-362 365 398 439 443 447 0
127 837 0
-308 314 0
-305 306 0
134 359 397 476 545 611 715 732 0
-636 637 0
-549 551 0
-480 482 0
-647 648 0
144 359 401 470 0
-720 721 0
-403 404 0
-274 275 0
-375 376 0
-378 380 0
-88 368 397 464 505 510 526 616 619 639 715 811 0
-89 421 464 506 526 614 641 717 811 0
-671 673 0
-466 467 0
-200 359 397 464 0
-842 843 0
-213 359 397 434 452 0
-770 772 0
-459 461 0
-741 742 0
-678 679 0
-231 359 397 464 0
-271 272 0
-494 495 0
-825 826 0
-700 701 0
-374 376 0
-595 596 0
-256 268 271 274 289 303 323 332 375 439 0
-477 478 0
242 359 397 464 587 589 758 821 0
-763 764 0
-696 697 0
-52 558 569 632 675 807 0
-440 441 0
-836 837 0
-661 662 0
-359 366 0
-234 594 0
-28 360 533 782 0
234 359 397 464 594 0
28 360 530 598 650 790 0
-360 365 398 465 532 599 602 609 651 712 0
-145 362 0
-719 722 0
145 362 593 691 746 815 821 0
-593 596 0
-385 387 0
-140 363 0
140 363 391 394 699 758 815 821 0
-434 437 0
-50 364 530 532 783 0
-365 366 0
-373 404 0
-653 654 0
-427 429 0
44 368 397 464 548 608 715 733 0
191 359 397 464 0
-410 411 0
-817 818 0
139 368 397 464 535 538 545 599 608 715 741 766 0
-584 585 0
-386 387 0
-326 328 0
17 370 400 467 0
-370 372 0
-462 463 0
-407 408 0
113 368 397 464 0
-474 475 0
-821 823 0
-726 728 0
-600 601 0
-579 584 0
-321 325 0
-471 472 0
-490 491 0
-372 373 0
-431 432 0
-717 745 0
-161 373 0
-401 402 0
-764 765 0
-115 351 382 446 0
-377 389 0
-379 380 0
-380 381 0
-827 828 0
-436 437 0
-382 383 0
71 359 397 470 540 546 581 603 651 775 0
-479 480 0
-591 592 0
-383 384 0
-512 513 0
-1 264 758 821 0
-384 385 0
-387 388 0
51 359 397 464 0
-381 385 0
-460 461 0
-388 389 0
119 699 752 815 821 0
-393 396 0
-394 395 0
-396 399 466 0
-837 838 0
-664 665 0
-225 593 691 746 815 821 0
-397 399 0
-710 711 0
-540 541 0
-42 255 319 374 378 438 442 0
-461 462 0
-399 400 0
182 763 826 0
-400 402 0
-253 254 0
-147 270 377 441 699 746 815 821 0
-426 427 0
-404 405 0
125 699 758 815 821 0
-405 407 0
-367 369 0
-429 430 0
-550 551 666 0
-390 392 0
-444 445 0
131 355 386 460 0
-408 409 0
-786 787 0
-409 410 0
-432 433 0
-78 411 475 0
-411 413 0
-329 330 0
-148 359 397 464 692 0
-487 488 0
-454 455 0
-491 492 0
-412 413 0
-113 699 758 815 821 0
-443 444 0
-616 617 642 0
-414 416 0
-843 844 0
179 322 0
-415 416 0
-701 702 0
-424 425 0
-739 740 0
157 419 476 703 758 821 0
-802 805 0
200 593 691 755 815 821 0
-420 422 0
41 848 0
-778 779 0
-312 313 0
-364 365 398 465 606 609 653 685 712 720 781 785 796 0
-441 463 0
-421 422 0
72 593 691 746 815 821 0
-422 423 0
-425 426 0
-612 629 666 0
-138 454 0
-428 429 0
-430 431 0
-509 511 516 625 643 0
37 435 699 758 815 821 0
-435 436 457 0
-442 444 0
-693 694 0
-446 447 0
-452 459 0
-453 456 0
-406 407 0
-455 456 0
-371 372 0
-456 457 0
-126 292 0
-458 459 0
-463 466 0
-464 466 0
-468 469 0
-470 471 0
-195 361 0
-472 474 0
-476 477 0
-481 482 0
-483 485 0
-484 485 0
-486 487 0
-488 489 0
-91 257 699 758 815 821 0
-489 491 0
-492 493 0
214 497 838 0
